p cnf 7230 17
-7077 -7205 7214 0
7205 -7214 0
-7199 -7211 -7219 0
-7197 -7209 -7217 0
-7195 -7207 -7215 0
7199 -7220 0
7197 -7218 0
7195 -7216 0
7219 7220 0
7217 7218 0
7215 7216 0
7211 -7220 0
7209 -7218 0
7207 -7216 0
7203 -7222 0
7213 7214 0
-7213 -7214 0
